17	4
23	23	25	23	
0	0	0	0	0	3	2	3	4	
4	3	3	5	9	3	5	17	17	
2	3	6	5	2	3	9	17	17	
6	1	1	10	6	3	6	7	8	
1	2	4	1	2	3	11	16	17	
75	8	6	1	2	3	10	12	17	
50	6	2	1	8	3	12	14	17	
175	6	5	3	1	3	11	17	17	
150	8	8	10	2	1	17	
75	10	8	4	9	2	16	17	
50	4	1	9	7	3	14	15	17	
175	10	8	1	10	2	13	17	
5	7	2	1	1	2	16	17	
9	1	1	3	3	1	17	
10	2	8	9	8	1	17	
2	6	5	1	8	2	17	17	
0	0	0	0	0	0	
